# SETS POPULATION
set A := AB AC BC BD BE CE DE DF EF;
set S := 1 2;
set D := 1 2;
# PARAMETERS POPULATION
param supply :=
1 100
2 50;
param demand :=
1 30
2 120;
param arc_capacity := 80;
param cost :=
AB 13
AC 12
BC 1
BD 6
BE 9
CE 7
DE 4
DF 13
EF 12;

